c defined variables: 8 9 10 11 12 13 14 15 16 17 18 19 20 21 22 23 24 25 26 27 28 29 30 31 32 33 51 53 54 55 56 58 59 61 62 63 64 65 66 67 68 69 
p cnf 327 491
a 1 2 3 4 5 6 7 39 40 41 42 43 44 45 46 0
e 8 9 10 11 12 13 14 15 16 17 18 19 20 21 22 23 24 25 26 27 28 29 30 31 32 33 51 53 54 55 56 58 59 61 62 63 64 65 66 67 68 69 253 254 255 256 257 258 259 260 261 262 263 264 265 266 267 268 269 270 271 272 273 274 275 276 277 278 279 280 281 282 283 284 285 286 287 288 289 290 291 292 293 294 295 296 297 298 299 300 301 302 303 304 305 306 307 308 309 310 311 312 313 314 315 316 317 318 319 320 321 322 323 324 325 326 327 0
d 38 39 40 0
d 37 41 42 0
d 36 43 44 41 42 0
d 35 43 44 41 42 45 46 0
d 34 39 45 40 46 43 44 41 42 0
d 47 1 2 3 4 5 6 7 39 40 41 42 43 44 45 46 0
d 48 1 2 3 4 5 6 7 39 40 41 42 43 44 45 46 0
d 49 1 2 3 4 5 6 7 39 40 41 42 43 44 45 46 0
d 50 1 2 3 4 5 6 7 39 40 41 42 43 44 45 46 0
d 52 1 2 3 4 5 6 7 39 40 41 42 43 44 45 46 0
d 57 1 2 3 4 5 6 7 39 40 41 42 43 44 45 46 0
d 60 1 2 3 4 5 6 7 39 40 41 42 43 44 45 46 0
253 -8 0
-253 8 0
254 -9 0
-254 9 0
-255 -10 0
255 10 0
256 -11 0
-256 11 0
257 -12 0
-257 12 0
-258 -13 0
258 13 0
259 -14 0
-259 14 0
260 -15 0
-260 15 0
-261 -16 0
261 16 0
262 -17 0
-262 17 0
263 -18 0
-263 18 0
-264 -19 0
264 19 0
265 -20 0
-265 20 0
266 -21 0
-266 21 0
-267 -22 0
267 22 0
-268 -23 0
268 23 0
269 -24 0
-269 24 0
271 -25 0
-271 25 0
273 -26 0
-273 26 0
-275 -27 0
275 27 0
276 -28 0
-276 28 0
277 -29 0
-277 29 0
279 -30 0
-279 30 0
280 -31 0
-280 31 0
281 -32 0
-281 32 0
-285 -33 0
285 33 0
280 -51 0
-280 51 0
-289 -53 0
289 53 0
253 -54 0
-253 54 0
254 -55 0
-254 55 0
-290 -56 0
290 56 0
294 -58 0
-294 58 0
297 -59 0
-297 59 0
300 -61 0
-300 61 0
303 -62 0
-303 62 0
306 -63 0
-306 63 0
309 -64 0
-309 64 0
315 -65 0
-315 65 0
318 -66 0
-318 66 0
321 -67 0
-321 67 0
324 -68 0
-324 68 0
327 -69 0
-327 69 0
-8 1 0
-8 4 0
-1 -4 8 0
-9 -1 0
-9 -4 0
1 4 9 0
-8 10 0
-9 10 0
-10 8 9 0
-11 7 0
-11 10 0
-7 -10 11 0
-12 -7 0
-12 -10 0
7 10 12 0
-11 13 0
-12 13 0
-13 11 12 0
-14 4 0
-14 7 0
-4 -7 14 0
-15 1 0
-15 -13 0
-1 13 15 0
-14 16 0
-15 16 0
-16 14 15 0
-17 3 0
-17 6 0
-3 -6 17 0
-18 -3 0
-18 -6 0
3 6 18 0
-17 19 0
-18 19 0
-19 17 18 0
-20 16 0
-20 19 0
-16 -19 20 0
-21 -16 0
-21 -19 0
16 19 21 0
-20 22 0
-21 22 0
-22 20 21 0
-2 23 0
-5 23 0
-23 2 5 0
-24 2 0
-24 5 0
-2 -5 24 0
-25 3 0
-25 -22 0
-25 23 0
-3 22 -23 25 0
-26 6 0
-26 16 0
-26 23 0
-6 -16 -23 26 0
-24 27 0
-25 27 0
-26 27 0
-27 24 25 26 0
-28 -27 0
-28 23 0
27 -23 28 0
-29 3 0
-29 6 0
-29 -27 0
-3 -6 27 29 0
-30 -27 0
-30 -22 0
-30 16 0
27 22 -16 30 0
-31 2 0
-31 3 0
-31 5 0
-31 6 0
-2 -3 -5 -6 31 0
-32 2 0
-32 5 0
-32 -22 0
-32 16 0
-2 -5 22 -16 32 0
-28 33 0
-29 33 0
-30 33 0
-31 33 0
-32 33 0
-33 28 29 30 31 32 0
-35 -47 0
35 47 0
-48 -34 0
-48 38 0
34 -38 48 0
-49 3 0
-49 6 0
-49 -34 0
-3 -6 34 49 0
-50 -34 0
-50 -47 0
-50 36 0
34 47 -36 50 0
-51 2 0
-51 3 0
-51 5 0
-51 6 0
-2 -3 -5 -6 51 0
-52 2 0
-52 5 0
-52 -47 0
-52 36 0
-2 -5 47 -36 52 0
-48 53 0
-49 53 0
-50 53 0
-51 53 0
-52 53 0
-53 48 49 50 51 52 0
-54 1 0
-54 4 0
-1 -4 54 0
-55 -1 0
-55 -4 0
1 4 55 0
-54 56 0
-55 56 0
-56 54 55 0
-57 -27 34 0
-57 27 -34 0
57 -27 -34 0
57 27 34 0
-58 -33 53 0
-58 33 -53 0
58 -33 -53 0
58 33 53 0
-59 -22 35 0
-59 22 -35 0
59 -22 -35 0
59 22 35 0
-60 -13 37 0
-60 13 -37 0
60 -13 -37 0
60 13 37 0
-57 -58 -59 -60 61 0
-61 57 0
-61 58 0
-61 59 0
-61 60 0
-2 -39 -62 0
-2 39 62 0
2 -39 62 0
2 39 -62 0
-5 -40 -63 0
-5 40 63 0
5 -40 63 0
5 40 -63 0
-7 -41 -64 0
-7 41 64 0
7 -41 64 0
7 41 -64 0
-56 -42 -65 0
-56 42 65 0
56 -42 65 0
56 42 -65 0
-1 -43 -66 0
-1 43 66 0
1 -43 66 0
1 43 -66 0
-4 -44 -67 0
-4 44 67 0
4 -44 67 0
4 44 -67 0
-3 -45 -68 0
-3 45 68 0
3 -45 68 0
3 45 -68 0
-6 -46 -69 0
-6 46 69 0
6 -46 69 0
6 46 -69 0
62 63 64 65 66 67 68 69 61 0
1 -253 0
4 -253 0
-1 -4 253 0
-1 -254 0
-4 -254 0
1 4 254 0
-8 -255 0
-9 -255 0
8 9 255 0
7 -256 0
10 -256 0
-7 -10 256 0
-7 -257 0
-10 -257 0
7 10 257 0
-11 -258 0
-12 -258 0
11 12 258 0
4 -259 0
7 -259 0
-4 -7 259 0
1 -260 0
-13 -260 0
-1 13 260 0
-14 -261 0
-15 -261 0
14 15 261 0
3 -262 0
6 -262 0
-3 -6 262 0
-3 -263 0
-6 -263 0
3 6 263 0
-17 -264 0
-18 -264 0
17 18 264 0
16 -265 0
19 -265 0
-16 -19 265 0
-16 -266 0
-19 -266 0
16 19 266 0
-20 -267 0
-21 -267 0
20 21 267 0
-2 -268 0
-5 -268 0
2 5 268 0
2 -269 0
5 -269 0
-2 -5 269 0
3 -270 0
-22 -270 0
-3 22 270 0
23 -271 0
270 -271 0
-23 -270 271 0
6 -272 0
16 -272 0
-6 -16 272 0
23 -273 0
272 -273 0
-23 -272 273 0
-24 -274 0
-25 -274 0
24 25 274 0
-26 -275 0
274 -275 0
26 -274 275 0
23 -276 0
-27 -276 0
-23 27 276 0
-27 -277 0
262 -277 0
27 -262 277 0
16 -278 0
-22 -278 0
-16 22 278 0
-27 -279 0
278 -279 0
27 -278 279 0
262 -280 0
269 -280 0
-262 -269 280 0
269 -281 0
278 -281 0
-269 -278 281 0
-28 -282 0
-29 -282 0
28 29 282 0
-30 -283 0
-31 -283 0
30 31 283 0
-32 -284 0
283 -284 0
32 -283 284 0
282 -285 0
284 -285 0
-282 -284 285 0
-48 -286 0
-49 -286 0
48 49 286 0
-50 -287 0
-51 -287 0
50 51 287 0
-52 -288 0
287 -288 0
52 -287 288 0
286 -289 0
288 -289 0
-286 -288 289 0
-54 -290 0
-55 -290 0
54 55 290 0
-31 -291 0
-33 -291 0
31 33 291 0
-53 -292 0
-291 -292 0
53 291 292 0
-33 -293 0
53 -293 0
33 -53 293 0
-292 -294 0
-293 -294 0
292 293 294 0
-22 -295 0
-47 -295 0
22 47 295 0
22 -296 0
47 -296 0
-22 -47 296 0
-295 -297 0
-296 -297 0
295 296 297 0
57 -298 0
58 -298 0
-57 -58 298 0
59 -299 0
60 -299 0
-59 -60 299 0
298 -300 0
299 -300 0
-298 -299 300 0
-2 -301 0
-39 -301 0
2 39 301 0
2 -302 0
39 -302 0
-2 -39 302 0
-301 -303 0
-302 -303 0
301 302 303 0
-5 -304 0
-40 -304 0
5 40 304 0
5 -305 0
40 -305 0
-5 -40 305 0
-304 -306 0
-305 -306 0
304 305 306 0
-7 -307 0
-41 -307 0
7 41 307 0
7 -308 0
41 -308 0
-7 -41 308 0
-307 -309 0
-308 -309 0
307 308 309 0
-253 -310 0
-254 -310 0
253 254 310 0
-42 -311 0
56 -311 0
42 -56 311 0
-310 -312 0
-311 -312 0
310 311 312 0
42 -313 0
-56 -313 0
-42 56 313 0
310 -314 0
-313 -314 0
-310 313 314 0
-312 -315 0
-314 -315 0
312 314 315 0
-1 -316 0
-43 -316 0
1 43 316 0
1 -317 0
43 -317 0
-1 -43 317 0
-316 -318 0
-317 -318 0
316 317 318 0
-4 -319 0
-44 -319 0
4 44 319 0
4 -320 0
44 -320 0
-4 -44 320 0
-319 -321 0
-320 -321 0
319 320 321 0
-3 -322 0
-45 -322 0
3 45 322 0
3 -323 0
45 -323 0
-3 -45 323 0
-322 -324 0
-323 -324 0
322 323 324 0
-6 -325 0
-46 -325 0
6 46 325 0
6 -326 0
46 -326 0
-6 -46 326 0
-325 -327 0
-326 -327 0
325 326 327 0
